p cnf 146 384
c weights 1.0 1.0 2.718281828459045 0.36787944117144233 2.718281828459045 0.36787944117144233 2.718281828459045 0.36787944117144233 2.718281828459045 0.36787944117144233 1.0 1.0 2.718281828459045 0.36787944117144233 2.718281828459045 0.36787944117144233 2.718281828459045 0.36787944117144233 2.718281828459045 0.36787944117144233 1.0 1.0 2.718281828459045 0.36787944117144233 2.718281828459045 0.36787944117144233 2.718281828459045 0.36787944117144233 2.718281828459045 0.36787944117144233 2.718281828459045 0.36787944117144233 1.0 1.0 2.718281828459045 0.36787944117144233 2.718281828459045 0.36787944117144233 2.718281828459045 0.36787944117144233 2.718281828459045 0.36787944117144233 2.718281828459045 0.36787944117144233 1.0 1.0 2.718281828459045 0.36787944117144233 2.718281828459045 0.36787944117144233 2.718281828459045 0.36787944117144233 2.718281828459045 0.36787944117144233 1.0 1.0 2.718281828459045 0.36787944117144233 2.718281828459045 0.36787944117144233 2.718281828459045 0.36787944117144233 2.718281828459045 0.36787944117144233 1.0 1.0 2.718281828459045 0.36787944117144233 2.718281828459045 0.36787944117144233 2.718281828459045 0.36787944117144233 2.718281828459045 0.36787944117144233 1.0 1.0 2.718281828459045 0.36787944117144233 2.718281828459045 0.36787944117144233 1.0 1.0 2.718281828459045 0.36787944117144233 2.718281828459045 0.36787944117144233 2.718281828459045 0.36787944117144233 2.718281828459045 0.36787944117144233 2.718281828459045 0.36787944117144233 1.0 1.0 2.718281828459045 0.36787944117144233 2.718281828459045 0.36787944117144233 1.0 1.0 2.718281828459045 0.36787944117144233 2.718281828459045 0.36787944117144233 1.0 1.0 2.718281828459045 0.36787944117144233 2.718281828459045 0.36787944117144233 2.718281828459045 0.36787944117144233 1.0 1.0 2.718281828459045 0.36787944117144233 2.718281828459045 0.36787944117144233 2.718281828459045 0.36787944117144233 1.0 1.0 2.718281828459045 0.36787944117144233 2.718281828459045 0.36787944117144233 1.0 1.0 2.718281828459045 0.36787944117144233 2.718281828459045 0.36787944117144233 2.718281828459045 0.36787944117144233 2.718281828459045 0.36787944117144233 2.718281828459045 0.36787944117144233 1.0 1.0 2.718281828459045 0.36787944117144233 2.718281828459045 0.36787944117144233 1.0 1.0 2.718281828459045 0.36787944117144233 2.718281828459045 0.36787944117144233 1.0 1.0 2.718281828459045 0.36787944117144233 2.718281828459045 0.36787944117144233 2.718281828459045 0.36787944117144233 1.0 1.0 2.718281828459045 0.36787944117144233 2.718281828459045 0.36787944117144233 1.0 1.0 2.718281828459045 0.36787944117144233 2.718281828459045 0.36787944117144233 1.0 1.0 2.718281828459045 0.36787944117144233 2.718281828459045 0.36787944117144233 2.718281828459045 0.36787944117144233 1.0 1.0 2.718281828459045 0.36787944117144233 2.718281828459045 0.36787944117144233 1.0 1.0 2.718281828459045 0.36787944117144233 2.718281828459045 0.36787944117144233 2.718281828459045 0.36787944117144233 1.0 1.0 2.718281828459045 0.36787944117144233 1.0 1.0 2.718281828459045 0.36787944117144233 2.718281828459045 0.36787944117144233 2.718281828459045 0.36787944117144233 1.0 1.0 1.0 1.0 2.718281828459045 0.36787944117144233 2.718281828459045 0.36787944117144233 2.718281828459045 0.36787944117144233 2.718281828459045 0.36787944117144233 1.0 1.0 1.0 1.0 2.718281828459045 0.36787944117144233 1.0 1.0 2.718281828459045 0.36787944117144233 2.718281828459045 0.36787944117144233 1.0 1.0 2.718281828459045 0.36787944117144233 1.0 1.0 2.718281828459045 0.36787944117144233 2.718281828459045 0.36787944117144233 2.718281828459045 0.36787944117144233 2.718281828459045 0.36787944117144233 1.0 1.0 2.718281828459045 0.36787944117144233 1.0 1.0 1.0 1.0 2.718281828459045 0.36787944117144233 1.0 1.0 1.0 1.0 2.718281828459045 0.36787944117144233 1.0 1.0 2.718281828459045 0.36787944117144233 1.0 1.0 1.0 1.0 1.0 1.0 1.0 1.0 1.0 1.0 2.718281828459045 0.36787944117144233 2.718281828459045 0.36787944117144233 1.0 1.0 2.718281828459045 0.36787944117144233 1.0 1.0 1.0 1.0 1.0 1.0 1.0 1.0 1.0 1.0 1.0 1.0
2 1 50 0
2 -1 -50 0
-2 1 -50 0
-2 -1 50 0
3 1 83 0
3 -1 -83 0
-3 1 -83 0
-3 -1 83 0
4 1 86 0
4 -1 -86 0
-4 1 -86 0
-4 -1 86 0
5 1 122 0
5 -1 -122 0
-5 1 -122 0
-5 -1 122 0
7 6 132 0
7 -6 -132 0
-7 6 -132 0
-7 -6 132 0
8 6 133 0
8 -6 -133 0
-8 6 -133 0
-8 -6 133 0
9 6 139 0
9 -6 -139 0
-9 6 -139 0
-9 -6 139 0
10 6 142 0
10 -6 -142 0
-10 6 -142 0
-10 -6 142 0
12 11 50 0
12 -11 -50 0
-12 11 -50 0
-12 -11 50 0
13 11 97 0
13 -11 -97 0
-13 11 -97 0
-13 -11 97 0
14 11 99 0
14 -11 -99 0
-14 11 -99 0
-14 -11 99 0
15 11 110 0
15 -11 -110 0
-15 11 -110 0
-15 -11 110 0
16 11 143 0
16 -11 -143 0
-16 11 -143 0
-16 -11 143 0
18 17 41 0
18 -17 -41 0
-18 17 -41 0
-18 -17 41 0
19 17 47 0
19 -17 -47 0
-19 17 -47 0
-19 -17 47 0
20 17 122 0
20 -17 -122 0
-20 17 -122 0
-20 -17 122 0
21 17 124 0
21 -17 -124 0
-21 17 -124 0
-21 -17 124 0
22 17 141 0
22 -17 -141 0
-22 17 -141 0
-22 -17 141 0
24 23 86 0
24 -23 -86 0
-24 23 -86 0
-24 -23 86 0
25 23 93 0
25 -23 -93 0
-25 23 -93 0
-25 -23 93 0
26 23 122 0
26 -23 -122 0
-26 23 -122 0
-26 -23 122 0
27 23 124 0
27 -23 -124 0
-27 23 -124 0
-27 -23 124 0
29 28 109 0
29 -28 -109 0
-29 28 -109 0
-29 -28 109 0
30 28 134 0
30 -28 -134 0
-30 28 -134 0
-30 -28 134 0
31 28 144 0
31 -28 -144 0
-31 28 -144 0
-31 -28 144 0
32 28 145 0
32 -28 -145 0
-32 28 -145 0
-32 -28 145 0
34 33 73 0
34 -33 -73 0
-34 33 -73 0
-34 -33 73 0
35 33 109 0
35 -33 -109 0
-35 33 -109 0
-35 -33 109 0
36 33 125 0
36 -33 -125 0
-36 33 -125 0
-36 -33 125 0
37 33 136 0
37 -33 -136 0
-37 33 -136 0
-37 -33 136 0
39 38 97 0
39 -38 -97 0
-39 38 -97 0
-39 -38 97 0
40 38 112 0
40 -38 -112 0
-40 38 -112 0
-40 -38 112 0
42 41 53 0
42 -41 -53 0
-42 41 -53 0
-42 -41 53 0
43 41 97 0
43 -41 -97 0
-43 41 -97 0
-43 -41 97 0
44 41 104 0
44 -41 -104 0
-44 41 -104 0
-44 -41 104 0
45 41 128 0
45 -41 -128 0
-45 41 -128 0
-45 -41 128 0
46 41 143 0
46 -41 -143 0
-46 41 -143 0
-46 -41 143 0
48 47 117 0
48 -47 -117 0
-48 47 -117 0
-48 -47 117 0
49 47 132 0
49 -47 -132 0
-49 47 -132 0
-49 -47 132 0
51 50 97 0
51 -50 -97 0
-51 50 -97 0
-51 -50 97 0
52 50 133 0
52 -50 -133 0
-52 50 -133 0
-52 -50 133 0
54 53 93 0
54 -53 -93 0
-54 53 -93 0
-54 -53 93 0
55 53 110 0
55 -53 -110 0
-55 53 -110 0
-55 -53 110 0
56 53 135 0
56 -53 -135 0
-56 53 -135 0
-56 -53 135 0
58 57 97 0
58 -57 -97 0
-58 57 -97 0
-58 -57 97 0
59 57 143 0
59 -57 -143 0
-59 57 -143 0
-59 -57 143 0
60 57 144 0
60 -57 -144 0
-60 57 -144 0
-60 -57 144 0
62 61 109 0
62 -61 -109 0
-62 61 -109 0
-62 -61 109 0
63 61 128 0
63 -61 -128 0
-63 61 -128 0
-63 -61 128 0
65 64 80 0
65 -64 -80 0
-65 64 -80 0
-65 -64 80 0
66 64 86 0
66 -64 -86 0
-66 64 -86 0
-66 -64 86 0
67 64 109 0
67 -64 -109 0
-67 64 -109 0
-67 -64 109 0
68 64 122 0
68 -64 -122 0
-68 64 -122 0
-68 -64 122 0
69 64 133 0
69 -64 -133 0
-69 64 -133 0
-69 -64 133 0
71 70 122 0
71 -70 -122 0
-71 70 -122 0
-71 -70 122 0
72 70 145 0
72 -70 -145 0
-72 70 -145 0
-72 -70 145 0
74 73 76 0
74 -73 -76 0
-74 73 -76 0
-74 -73 76 0
75 73 144 0
75 -73 -144 0
-75 73 -144 0
-75 -73 144 0
77 76 133 0
77 -76 -133 0
-77 76 -133 0
-77 -76 133 0
78 76 136 0
78 -76 -136 0
-78 76 -136 0
-78 -76 136 0
79 76 144 0
79 -76 -144 0
-79 76 -144 0
-79 -76 144 0
81 80 128 0
81 -80 -128 0
-81 80 -128 0
-81 -80 128 0
82 80 142 0
82 -80 -142 0
-82 80 -142 0
-82 -80 142 0
84 83 117 0
84 -83 -117 0
-84 83 -117 0
-84 -83 117 0
85 83 144 0
85 -83 -144 0
-85 83 -144 0
-85 -83 144 0
87 86 112 0
87 -86 -112 0
-87 86 -112 0
-87 -86 112 0
88 86 139 0
88 -86 -139 0
-88 86 -139 0
-88 -86 139 0
89 86 143 0
89 -86 -143 0
-89 86 -143 0
-89 -86 143 0
91 90 104 0
91 -90 -104 0
-91 90 -104 0
-91 -90 104 0
92 90 130 0
92 -90 -130 0
-92 90 -130 0
-92 -90 130 0
94 93 117 0
94 -93 -117 0
-94 93 -117 0
-94 -93 117 0
95 93 122 0
95 -93 -122 0
-95 93 -122 0
-95 -93 122 0
96 93 127 0
96 -93 -127 0
-96 93 -127 0
-96 -93 127 0
98 97 142 0
98 -97 -142 0
-98 97 -142 0
-98 -97 142 0
100 99 124 0
100 -99 -124 0
-100 99 -124 0
-100 -99 124 0
101 99 133 0
101 -99 -133 0
-101 99 -133 0
-101 -99 133 0
102 99 145 0
102 -99 -145 0
-102 99 -145 0
-102 -99 145 0
105 104 109 0
105 -104 -109 0
-105 104 -109 0
-105 -104 109 0
106 104 122 0
106 -104 -122 0
-106 104 -122 0
-106 -104 122 0
107 104 128 0
107 -104 -128 0
-107 104 -128 0
-107 -104 128 0
108 104 134 0
108 -104 -134 0
-108 104 -134 0
-108 -104 134 0
111 110 117 0
111 -110 -117 0
-111 110 -117 0
-111 -110 117 0
113 112 134 0
113 -112 -134 0
-113 112 -134 0
-113 -112 134 0
114 112 135 0
114 -112 -135 0
-114 112 -135 0
-114 -112 135 0
116 115 127 0
116 -115 -127 0
-116 115 -127 0
-116 -115 127 0
118 117 122 0
118 -117 -122 0
-118 117 -122 0
-118 -117 122 0
119 117 128 0
119 -117 -128 0
-119 117 -128 0
-119 -117 128 0
120 117 142 0
120 -117 -142 0
-120 117 -142 0
-120 -117 142 0
121 117 144 0
121 -117 -144 0
-121 117 -144 0
-121 -117 144 0
123 122 127 0
123 -122 -127 0
-123 122 -127 0
-123 -122 127 0
126 125 132 0
126 -125 -132 0
-126 125 -132 0
-126 -125 132 0
129 128 139 0
129 -128 -139 0
-129 128 -139 0
-129 -128 139 0
131 130 141 0
131 -130 -141 0
-131 130 -141 0
-131 -130 141 0
137 136 143 0
137 -136 -143 0
-137 136 -143 0
-137 -136 143 0
138 136 145 0
138 -136 -145 0
-138 136 -145 0
-138 -136 145 0
140 139 141 0
140 -139 -141 0
-140 139 -141 0
-140 -139 141 0
